22, 8032
9530, 987
11642, 698
3898, 601
4023, 914
5990, 659
10177, 615
2604, 945
3415, 892
6537, 690
2677, 873
2782, 545
2912, 743
5514, 994
9535, 908
4232, 521
3569, 797
6177, 513
5072, 770
7046, 548
3352, 790
2516, 661
12151, 999